single_objective/SL-DABL/OP/problems/op/OPLib-master/instances/gen1/pcb442-gen1-50.oplib
NAME : pcb442
COMMENT : Drilling problem (Groetschel/Juenger/Reinelt)
TYPE : OP
DIMENSION : 442
COST_LIMIT : 25389
EDGE_WEIGHT_TYPE : EUC_2D
NODE_COORD_SECTION
1 2.00000e+02 4.00000e+02
2 2.00000e+02 5.00000e+02
3 2.00000e+02 6.00000e+02
4 2.00000e+02 7.00000e+02
5 2.00000e+02 8.00000e+02
6 2.00000e+02 9.00000e+02
7 2.00000e+02 1.00000e+03
8 2.00000e+02 1.10000e+03
9 2.00000e+02 1.20000e+03
10 2.00000e+02 1.30000e+03
11 2.00000e+02 1.40000e+03
12 2.00000e+02 1.50000e+03
13 2.00000e+02 1.60000e+03
14 2.00000e+02 1.70000e+03
15 2.00000e+02 1.80000e+03
16 2.00000e+02 1.90000e+03
17 2.00000e+02 2.00000e+03
18 2.00000e+02 2.10000e+03
19 2.00000e+02 2.20000e+03
20 2.00000e+02 2.30000e+03
21 2.00000e+02 2.40000e+03
22 2.00000e+02 2.50000e+03
23 2.00000e+02 2.60000e+03
24 2.00000e+02 2.70000e+03
25 2.00000e+02 2.80000e+03
26 2.00000e+02 2.90000e+03
27 2.00000e+02 3.00000e+03
28 2.00000e+02 3.10000e+03
29 2.00000e+02 3.20000e+03
30 2.00000e+02 3.30000e+03
31 2.00000e+02 3.40000e+03
32 2.00000e+02 3.50000e+03
33 2.00000e+02 3.60000e+03
34 3.00000e+02 4.00000e+02
35 3.00000e+02 5.00000e+02
36 3.00000e+02 6.00000e+02
37 3.00000e+02 7.00000e+02
38 3.00000e+02 8.00000e+02
39 3.00000e+02 9.00000e+02
40 3.00000e+02 1.00000e+03
41 3.00000e+02 1.10000e+03
42 3.00000e+02 1.20000e+03
43 3.00000e+02 1.30000e+03
44 3.00000e+02 1.40000e+03
45 3.00000e+02 1.50000e+03
46 3.00000e+02 1.60000e+03
47 3.00000e+02 1.70000e+03
48 3.00000e+02 1.80000e+03
49 3.00000e+02 1.90000e+03
50 3.00000e+02 2.00000e+03
51 3.00000e+02 2.10000e+03
52 3.00000e+02 2.20000e+03
53 3.00000e+02 2.30000e+03
54 3.00000e+02 2.40000e+03
55 3.00000e+02 2.50000e+03
56 3.00000e+02 2.60000e+03
57 3.00000e+02 2.70000e+03
58 3.00000e+02 2.80000e+03
59 3.00000e+02 2.90000e+03
60 3.00000e+02 3.00000e+03
61 3.00000e+02 3.10000e+03
62 3.00000e+02 3.20000e+03
63 3.00000e+02 3.30000e+03
64 3.00000e+02 3.40000e+03
65 3.00000e+02 3.50000e+03
66 4.00000e+02 4.00000e+02
67 4.00000e+02 5.00000e+02
68 4.00000e+02 6.00000e+02
69 4.00000e+02 7.00000e+02
70 4.00000e+02 8.00000e+02
71 4.00000e+02 9.00000e+02
72 4.00000e+02 1.00000e+03
73 4.00000e+02 1.10000e+03
74 4.00000e+02 1.20000e+03
75 4.00000e+02 1.30000e+03
76 4.00000e+02 1.40000e+03
77 4.00000e+02 1.50000e+03
78 4.00000e+02 1.60000e+03
79 4.00000e+02 1.70000e+03
80 4.00000e+02 1.80000e+03
81 4.00000e+02 1.90000e+03
82 4.00000e+02 2.00000e+03
83 4.00000e+02 2.10000e+03
84 4.00000e+02 2.20000e+03
85 4.00000e+02 2.30000e+03
86 4.00000e+02 2.40000e+03
87 4.00000e+02 2.50000e+03
88 4.00000e+02 2.60000e+03
89 4.00000e+02 2.70000e+03
90 4.00000e+02 2.80000e+03
91 4.00000e+02 2.90000e+03
92 4.00000e+02 3.00000e+03
93 4.00000e+02 3.10000e+03
94 4.00000e+02 3.20000e+03
95 4.00000e+02 3.30000e+03
96 4.00000e+02 3.40000e+03
97 4.00000e+02 3.50000e+03
98 4.00000e+02 3.60000e+03
99 5.00000e+02 1.50000e+03
100 5.00000e+02 1.82900e+03
101 5.00000e+02 3.10000e+03
102 6.00000e+02 4.00000e+02
103 7.00000e+02 3.00000e+02
104 7.00000e+02 6.00000e+02
105 7.00000e+02 1.50000e+03
106 7.00000e+02 1.60000e+03
107 7.00000e+02 1.80000e+03
108 7.00000e+02 2.10000e+03
109 7.00000e+02 2.40000e+03
110 7.00000e+02 2.70000e+03
111 7.00000e+02 3.00000e+03
112 7.00000e+02 3.30000e+03
113 7.00000e+02 3.60000e+03
114 8.00000e+02 3.00000e+02
115 8.00000e+02 6.00000e+02
116 8.00000e+02 1.03000e+03
117 8.00000e+02 1.50000e+03
118 8.00000e+02 1.80000e+03
119 8.00000e+02 2.10000e+03
120 8.00000e+02 2.40000e+03
121 8.00000e+02 2.60000e+03
122 8.00000e+02 2.70000e+03
123 8.00000e+02 3.00000e+03
124 8.00000e+02 3.30000e+03
125 8.00000e+02 3.60000e+03
126 9.00000e+02 3.00000e+02
127 9.00000e+02 6.00000e+02
128 9.00000e+02 1.50000e+03
129 9.00000e+02 1.80000e+03
130 9.00000e+02 2.10000e+03
131 9.00000e+02 2.40000e+03
132 9.00000e+02 2.70000e+03
133 9.00000e+02 3.00000e+03
134 9.00000e+02 3.30000e+03
135 9.00000e+02 3.60000e+03
136 1.00000e+03 3.00000e+02
137 1.00000e+03 6.00000e+02
138 1.00000e+03 1.10000e+03
139 1.00000e+03 1.50000e+03
140 1.00000e+03 1.62900e+03
141 1.00000e+03 1.80000e+03
142 1.00000e+03 2.10000e+03
143 1.00000e+03 2.40000e+03
144 1.00000e+03 2.60000e+03
145 1.00000e+03 2.70000e+03
146 1.00000e+03 3.00000e+03
147 1.00000e+03 3.30000e+03
148 1.00000e+03 3.60000e+03
149 1.10000e+03 3.00000e+02
150 1.10000e+03 6.00000e+02
151 1.10000e+03 7.00000e+02
152 1.10000e+03 9.00000e+02
153 1.10000e+03 1.50000e+03
154 1.10000e+03 1.80000e+03
155 1.10000e+03 2.10000e+03
156 1.10000e+03 2.40000e+03
157 1.10000e+03 2.70000e+03
158 1.10000e+03 3.00000e+03
159 1.10000e+03 3.30000e+03
160 1.10000e+03 3.60000e+03
161 1.20000e+03 3.00000e+02
162 1.20000e+03 6.00000e+02
163 1.20000e+03 1.50000e+03
164 1.20000e+03 1.70000e+03
165 1.20000e+03 1.80000e+03
166 1.20000e+03 2.10000e+03
167 1.20000e+03 2.40000e+03
168 1.20000e+03 2.70000e+03
169 1.20000e+03 3.00000e+03
170 1.20000e+03 3.30000e+03
171 1.20000e+03 3.60000e+03
172 1.30000e+03 3.00000e+02
173 1.30000e+03 6.00000e+02
174 1.30000e+03 7.00000e+02
175 1.30000e+03 1.13000e+03
176 1.30000e+03 1.50000e+03
177 1.30000e+03 1.80000e+03
178 1.30000e+03 2.10000e+03
179 1.30000e+03 2.20000e+03
180 1.30000e+03 2.40000e+03
181 1.30000e+03 2.70000e+03
182 1.30000e+03 3.00000e+03
183 1.30000e+03 3.30000e+03
184 1.30000e+03 3.60000e+03
185 1.40000e+03 3.00000e+02
186 1.40000e+03 6.00000e+02
187 1.40000e+03 9.30000e+02
188 1.40000e+03 1.50000e+03
189 1.40000e+03 1.80000e+03
190 1.40000e+03 2.00000e+03
191 1.40000e+03 2.10000e+03
192 1.40000e+03 2.40000e+03
193 1.40000e+03 2.50000e+03
194 1.40000e+03 2.70000e+03
195 1.40000e+03 2.82000e+03
196 1.40000e+03 2.90000e+03
197 1.40000e+03 3.00000e+03
198 1.40000e+03 3.30000e+03
199 1.40000e+03 3.60000e+03
200 1.50000e+03 1.50000e+03
201 1.50000e+03 1.80000e+03
202 1.50000e+03 1.90000e+03
203 1.50000e+03 2.10000e+03
204 1.50000e+03 2.40000e+03
205 1.50000e+03 2.70000e+03
206 1.50000e+03 2.80000e+03
207 1.50000e+03 2.86000e+03
208 1.50000e+03 3.00000e+03
209 1.50000e+03 3.30000e+03
210 1.50000e+03 3.60000e+03
211 1.60000e+03 1.10000e+03
212 1.60000e+03 1.30000e+03
213 1.60000e+03 1.50000e+03
214 1.60000e+03 1.80000e+03
215 1.60000e+03 2.10000e+03
216 1.60000e+03 2.40000e+03
217 1.60000e+03 2.70000e+03
218 1.60000e+03 3.00000e+03
219 1.60000e+03 3.30000e+03
220 1.60000e+03 3.60000e+03
221 1.70000e+03 1.20000e+03
222 1.70000e+03 1.50000e+03
223 1.70000e+03 1.80000e+03
224 1.70000e+03 2.10000e+03
225 1.70000e+03 2.40000e+03
226 1.70000e+03 3.60000e+03
227 1.80000e+03 3.00000e+02
228 1.80000e+03 6.00000e+02
229 1.80000e+03 1.23000e+03
230 1.80000e+03 1.50000e+03
231 1.80000e+03 1.80000e+03
232 1.80000e+03 2.10000e+03
233 1.80000e+03 2.40000e+03
234 1.90000e+03 3.00000e+02
235 1.90000e+03 6.00000e+02
236 1.90000e+03 3.00000e+03
237 1.90000e+03 3.52000e+03
238 2.00000e+03 3.00000e+02
239 2.00000e+03 3.70000e+02
240 2.00000e+03 6.00000e+02
241 2.00000e+03 8.00000e+02
242 2.00000e+03 9.00000e+02
243 2.00000e+03 1.00000e+03
244 2.00000e+03 1.10000e+03
245 2.00000e+03 1.20000e+03
246 2.00000e+03 1.30000e+03
247 2.00000e+03 1.40000e+03
248 2.00000e+03 1.50000e+03
249 2.00000e+03 1.60000e+03
250 2.00000e+03 1.70000e+03
251 2.00000e+03 1.80000e+03
252 2.00000e+03 1.90000e+03
253 2.00000e+03 2.00000e+03
254 2.00000e+03 2.10000e+03
255 2.00000e+03 2.20000e+03
256 2.00000e+03 2.30000e+03
257 2.00000e+03 2.40000e+03
258 2.00000e+03 2.50000e+03
259 2.00000e+03 2.60000e+03
260 2.00000e+03 2.70000e+03
261 2.00000e+03 2.80000e+03
262 2.00000e+03 2.90000e+03
263 2.00000e+03 3.00000e+03
264 2.00000e+03 3.10000e+03
265 2.00000e+03 3.50000e+03
266 2.10000e+03 3.00000e+02
267 2.10000e+03 6.00000e+02
268 2.10000e+03 3.20000e+03
269 2.20000e+03 3.00000e+02
270 2.20000e+03 4.69000e+02
271 2.20000e+03 6.00000e+02
272 2.20000e+03 3.20000e+03
273 2.30000e+03 3.00000e+02
274 2.30000e+03 6.00000e+02
275 2.30000e+03 3.40000e+03
276 2.40000e+03 3.00000e+02
277 2.40000e+03 6.00000e+02
278 2.40000e+03 2.10000e+03
279 2.50000e+03 3.00000e+02
280 2.50000e+03 8.00000e+02
281 2.60000e+03 4.00000e+02
282 2.60000e+03 5.00000e+02
283 2.60000e+03 8.00000e+02
284 2.60000e+03 9.00000e+02
285 2.60000e+03 1.00000e+03
286 2.60000e+03 1.10000e+03
287 2.60000e+03 1.20000e+03
288 2.60000e+03 1.30000e+03
289 2.60000e+03 1.40000e+03
290 2.60000e+03 1.50000e+03
291 2.60000e+03 1.60000e+03
292 2.60000e+03 1.70000e+03
293 2.60000e+03 1.80000e+03
294 2.60000e+03 1.90000e+03
295 2.60000e+03 2.00000e+03
296 2.60000e+03 2.10000e+03
297 2.60000e+03 2.20000e+03
298 2.60000e+03 2.30000e+03
299 2.60000e+03 2.40000e+03
300 2.60000e+03 2.50000e+03
301 2.60000e+03 2.60000e+03
302 2.60000e+03 2.70000e+03
303 2.60000e+03 2.80000e+03
304 2.60000e+03 2.90000e+03
305 2.60000e+03 3.00000e+03
306 2.60000e+03 3.10000e+03
307 2.60000e+03 3.40000e+03
308 2.70000e+03 7.00000e+02
309 2.70000e+03 8.00000e+02
310 2.70000e+03 9.00000e+02
311 2.70000e+03 1.00000e+03
312 2.70000e+03 1.10000e+03
313 2.70000e+03 1.20000e+03
314 2.70000e+03 1.30000e+03
315 2.70000e+03 1.40000e+03
316 2.70000e+03 1.50000e+03
317 2.70000e+03 1.60000e+03
318 2.70000e+03 1.70000e+03
319 2.70000e+03 1.80000e+03
320 2.70000e+03 1.90000e+03
321 2.70000e+03 2.00000e+03
322 2.70000e+03 2.10000e+03
323 2.70000e+03 2.20000e+03
324 2.70000e+03 2.30000e+03
325 2.70000e+03 2.50000e+03
326 2.70000e+03 2.60000e+03
327 2.70000e+03 2.70000e+03
328 2.70000e+03 2.80000e+03
329 2.70000e+03 2.90000e+03
330 2.70000e+03 3.00000e+03
331 2.70000e+03 3.10000e+03
332 2.70000e+03 3.20000e+03
333 2.70000e+03 3.30000e+03
334 2.70000e+03 3.40000e+03
335 2.70000e+03 3.50000e+03
336 2.70000e+03 3.60000e+03
337 2.70000e+03 3.70000e+03
338 2.70000e+03 3.80000e+03
339 2.80000e+03 9.00000e+02
340 2.80000e+03 1.13000e+03
341 2.90000e+03 4.00000e+02
342 2.90000e+03 5.00000e+02
343 2.90000e+03 1.40000e+03
344 2.90000e+03 2.40000e+03
345 2.90000e+03 3.00000e+03
346 3.00000e+03 7.00000e+02
347 3.00000e+03 8.00000e+02
348 3.00000e+03 9.00000e+02
349 3.00000e+03 1.00000e+03
350 3.00000e+03 1.10000e+03
351 3.00000e+03 1.20000e+03
352 3.00000e+03 1.30000e+03
353 3.00000e+03 1.50000e+03
354 3.00000e+03 1.60000e+03
355 3.00000e+03 1.70000e+03
356 3.00000e+03 1.80000e+03
357 3.00000e+03 1.90000e+03
358 3.00000e+03 2.00000e+03
359 3.00000e+03 2.10000e+03
360 3.00000e+03 2.20000e+03
361 3.00000e+03 2.30000e+03
362 3.00000e+03 2.50000e+03
363 3.00000e+03 2.60000e+03
364 3.00000e+03 2.70000e+03
365 3.00000e+03 2.80000e+03
366 3.00000e+03 2.90000e+03
367 3.00000e+03 3.00000e+03
368 3.00000e+03 3.10000e+03
369 3.00000e+03 3.20000e+03
370 3.00000e+03 3.30000e+03
371 3.00000e+03 3.40000e+03
372 3.00000e+03 3.50000e+03
373 3.00000e+03 3.60000e+03
374 3.00000e+03 3.70000e+03
375 3.00000e+03 3.80000e+03
376 1.50000e+02 3.50000e+03
377 1.50000e+02 3.55000e+03
378 4.69000e+02 2.55000e+03
379 4.69000e+02 3.35000e+03
380 4.69000e+02 3.45000e+03
381 5.40000e+02 2.33000e+03
382 5.40000e+02 2.43000e+03
383 6.20000e+02 3.65000e+03
384 6.20000e+02 3.70900e+03
385 7.50000e+02 2.55000e+03
386 8.50000e+02 5.20000e+02
387 8.50000e+02 7.00000e+02
388 8.50000e+02 2.28000e+03
389 9.39000e+02 7.40000e+02
390 9.50000e+02 2.22000e+03
391 9.10000e+02 2.60000e+03
392 1.05000e+03 1.05000e+03
393 1.15000e+03 1.35000e+03
394 1.17000e+03 2.28000e+03
395 1.22000e+03 2.21000e+03
396 1.35000e+03 7.50000e+02
397 1.35000e+03 1.70000e+03
398 1.35000e+03 2.14000e+03
399 1.45000e+03 7.70000e+02
400 1.55000e+03 3.00000e+02
401 1.55000e+03 5.00000e+02
402 1.55000e+03 1.85000e+03
403 1.65000e+03 1.05000e+03
404 1.69000e+03 2.68000e+03
405 1.71000e+03 3.10000e+02
406 1.71000e+03 5.10000e+02
407 1.75000e+03 7.50000e+02
408 1.79000e+03 2.58000e+03
409 1.72000e+03 2.61000e+03
410 1.79000e+03 3.33000e+03
411 1.72000e+03 3.40900e+03
412 1.82900e+03 2.70000e+03
413 1.82900e+03 2.80000e+03
414 1.82900e+03 3.45000e+03
415 2.06000e+03 1.65000e+03
416 2.05000e+03 3.15000e+03
417 2.17000e+03 1.90000e+03
418 2.11000e+03 2.00000e+03
419 2.12000e+03 2.75000e+03
420 2.15000e+03 3.25000e+03
421 2.29000e+03 1.40000e+03
422 2.22000e+03 2.82000e+03
423 2.28000e+03 3.25000e+03
424 2.39000e+03 1.30000e+03
425 2.32000e+03 1.50000e+03
426 2.45000e+03 7.10000e+02
427 2.62000e+03 3.65000e+03
428 2.75000e+03 5.20000e+02
429 2.76000e+03 2.36000e+03
430 2.85000e+03 2.20000e+03
431 2.85000e+03 2.70000e+03
432 2.85000e+03 3.35000e+03
433 2.93000e+03 9.50000e+02
434 2.95000e+03 1.75000e+03
435 2.95000e+03 2.05000e+03
436 5.20000e+02 3.20000e+03
437 2.30000e+03 3.50000e+03
438 2.32000e+03 3.15000e+03
439 5.30000e+02 2.10000e+03
440 2.55000e+03 7.10000e+02
441 7.50000e+02 4.90000e+02
442 0.00000e+00 0.00000e+00
NODE_SCORE_SECTION
1 1
2 1
3 1
4 1
5 1
6 1
7 1
8 1
9 1
10 1
11 1
12 1
13 1
14 1
15 1
16 1
17 1
18 1
19 1
20 1
21 1
22 1
23 1
24 1
25 1
26 1
27 1
28 1
29 1
30 1
31 1
32 1
33 1
34 1
35 1
36 1
37 1
38 1
39 1
40 1
41 1
42 1
43 1
44 1
45 1
46 1
47 1
48 1
49 1
50 1
51 1
52 1
53 1
54 1
55 1
56 1
57 1
58 1
59 1
60 1
61 1
62 1
63 1
64 1
65 1
66 1
67 1
68 1
69 1
70 1
71 1
72 1
73 1
74 1
75 1
76 1
77 1
78 1
79 1
80 1
81 1
82 1
83 1
84 1
85 1
86 1
87 1
88 1
89 1
90 1
91 1
92 1
93 1
94 1
95 1
96 1
97 1
98 1
99 1
100 1
101 1
102 1
103 1
104 1
105 1
106 1
107 1
108 1
109 1
110 1
111 1
112 1
113 1
114 1
115 1
116 1
117 1
118 1
119 1
120 1
121 1
122 1
123 1
124 1
125 1
126 1
127 1
128 1
129 1
130 1
131 1
132 1
133 1
134 1
135 1
136 1
137 1
138 1
139 1
140 1
141 1
142 1
143 1
144 1
145 1
146 1
147 1
148 1
149 1
150 1
151 1
152 1
153 1
154 1
155 1
156 1
157 1
158 1
159 1
160 1
161 1
162 1
163 1
164 1
165 1
166 1
167 1
168 1
169 1
170 1
171 1
172 1
173 1
174 1
175 1
176 1
177 1
178 1
179 1
180 1
181 1
182 1
183 1
184 1
185 1
186 1
187 1
188 1
189 1
190 1
191 1
192 1
193 1
194 1
195 1
196 1
197 1
198 1
199 1
200 1
201 1
202 1
203 1
204 1
205 1
206 1
207 1
208 1
209 1
210 1
211 1
212 1
213 1
214 1
215 1
216 1
217 1
218 1
219 1
220 1
221 1
222 1
223 1
224 1
225 1
226 1
227 1
228 1
229 1
230 1
231 1
232 1
233 1
234 1
235 1
236 1
237 1
238 1
239 1
240 1
241 1
242 1
243 1
244 1
245 1
246 1
247 1
248 1
249 1
250 1
251 1
252 1
253 1
254 1
255 1
256 1
257 1
258 1
259 1
260 1
261 1
262 1
263 1
264 1
265 1
266 1
267 1
268 1
269 1
270 1
271 1
272 1
273 1
274 1
275 1
276 1
277 1
278 1
279 1
280 1
281 1
282 1
283 1
284 1
285 1
286 1
287 1
288 1
289 1
290 1
291 1
292 1
293 1
294 1
295 1
296 1
297 1
298 1
299 1
300 1
301 1
302 1
303 1
304 1
305 1
306 1
307 1
308 1
309 1
310 1
311 1
312 1
313 1
314 1
315 1
316 1
317 1
318 1
319 1
320 1
321 1
322 1
323 1
324 1
325 1
326 1
327 1
328 1
329 1
330 1
331 1
332 1
333 1
334 1
335 1
336 1
337 1
338 1
339 1
340 1
341 1
342 1
343 1
344 1
345 1
346 1
347 1
348 1
349 1
350 1
351 1
352 1
353 1
354 1
355 1
356 1
357 1
358 1
359 1
360 1
361 1
362 1
363 1
364 1
365 1
366 1
367 1
368 1
369 1
370 1
371 1
372 1
373 1
374 1
375 1
376 1
377 1
378 1
379 1
380 1
381 1
382 1
383 1
384 1
385 1
386 1
387 1
388 1
389 1
390 1
391 1
392 1
393 1
394 1
395 1
396 1
397 1
398 1
399 1
400 1
401 1
402 1
403 1
404 1
405 1
406 1
407 1
408 1
409 1
410 1
411 1
412 1
413 1
414 1
415 1
416 1
417 1
418 1
419 1
420 1
421 1
422 1
423 1
424 1
425 1
426 1
427 1
428 1
429 1
430 1
431 1
432 1
433 1
434 1
435 1
436 1
437 1
438 1
439 1
440 1
441 1
442 1
DEPOT_SECTION
1
-1
EOF
