single_objective/SL-DABL/OP/problems/op/OPLib-master/solutions/ea4op/gen1/pcb442-gen1-50.sol
NAME : pcb442
TYPE : OP
DIMENSION : 442
COST_LIMIT : 25389
ROUTE_NODES : 244
ROUTE_SCORE : 244
ROUTE_COST : 25356
NODE_SEQUENCE_SECTION
1
2
3
4
37
36
68
69
70
71
72
40
39
38
5
6
7
8
41
42
9
10
43
75
76
44
11
12
13
46
47
48
49
50
82
83
51
18
19
52
53
54
86
87
378
88
89
90
91
92
60
59
58
57
56
23
24
25
26
27
28
61
62
29
30
63
64
31
32
376
377
33
65
97
380
96
379
95
94
436
101
111
123
133
146
158
169
182
197
196
195
207
206
205
217
404
409
408
412
260
259
258
257
233
225
216
204
192
180
167
156
143
131
388
390
130
142
155
166
395
179
178
398
191
203
215
224
232
254
253
252
251
250
415
249
248
247
246
245
244
243
242
241
240
267
271
274
277
426
440
280
283
309
310
284
285
311
312
286
287
288
314
315
289
290
316
317
318
319
320
321
295
296
297
323
324
298
299
300
325
326
327
302
303
304
329
330
305
306
331
368
367
366
365
364
363
362
344
361
360
359
435
358
357
356
434
355
354
353
343
352
351
350
349
433
348
347
346
342
428
282
281
279
276
273
269
266
238
239
234
227
405
400
185
172
161
149
136
126
114
103
102
66
34
-1
DEPOT_SECTION
1
-1
EOF
